Maximize

29.5 b0 + 28.0 b1 + 36.0 b2 + 6 b3 + 18.5 b4.v0 + 18.5 b4.v1 + 7 b5.v0 + 7 b5.v1 + 23.5 b6 + 2 b7 + 23.5 b8 + 6 b9 + 6 b10.v0 + 6 b10.v1 + 7 b11.v0 + 7 b11.v1 + 23.5 b12 + 53.5 b13 + 18.5 b14 + 23.5 b15 + 6 b16 + 6 b17.v0 + 6 b17.v1 + 7 b18.v0 + 7 b18.v1 + 23.5 b19 + 2 b20 + 23.5 b21 + 6 b22 + 6 b23.v0 + 6 b23.v1 + 7 b24.v0 + 7 b24.v1 + 19.5 b25 + 14.5 b26.v0 + 14.5 b26.v1 + 14.5 b26.v2 + 18.5 b26.v3 + 14.5 b26.v4 + 10 b27 + 42.0 b28 + 18.5 b29 + 10 b30 + 87.5 b31 + 6 b32 + 10 b33 + 6 b34 + 10 b35 + 1 b36 + 1 b37 + 1 b38 + 13.5 b39


Subject to

\ === tcfg constraints ===
dSta_0 = 1
b0 - dSta_0 = 0
b0 - d0_1 = 0
b1 - d0_1 = 0
b1 - d1_2 = 0
b2 - d1_2 = 0
b2 - d2_4 - d2_3 = 0
b3 - d2_3 = 0
b3 - d3_39 - d3_4 = 0
b4 - d2_4 - d3_4 = 0
b4 - d4_5 = 0
b5 - d4_5 - d39_5 = 0
b5 - d5_6 = 0
b6 - d5_6 = 0
b6 - d6_26 - d6_7 = 0
b7 - d6_7 = 0
b7 - d7_8 = 0
b8 - d7_8 = 0
b8 - d8_10 - d8_9 = 0
b9 - d8_9 = 0
b9 - d9_38 - d9_10 = 0
b10 - d8_10 - d9_10 = 0
b10 - d10_11 = 0
b11 - d10_11 - d38_11 = 0
b11 - d11_12 = 0
b12 - d11_12 = 0
b12 - d12_26 - d12_13 = 0
b13 - d12_13 = 0
b13 - d13_26 - d13_14 = 0
b14 - d13_14 = 0
b14 - d14_15 = 0
b15 - d14_15 = 0
b15 - d15_17 - d15_16 = 0
b16 - d15_16 = 0
b16 - d16_37 - d16_17 = 0
b17 - d15_17 - d16_17 = 0
b17 - d17_18 = 0
b18 - d17_18 - d37_18 = 0
b18 - d18_19 = 0
b19 - d18_19 = 0
b19 - d19_26 - d19_20 = 0
b20 - d19_20 = 0
b20 - d20_21 = 0
b21 - d20_21 = 0
b21 - d21_23 - d21_22 = 0
b22 - d21_22 = 0
b22 - d22_36 - d22_23 = 0
b23 - d21_23 - d22_23 = 0
b23 - d23_24 = 0
b24 - d23_24 - d36_24 = 0
b24 - d24_25 = 0
b25 - d24_25 = 0
b25 - d25_28 - d25_26 = 0
b26 - d6_26 - d12_26 - d19_26 - d25_26 - d13_26 = 0
b26 - d26_27 = 0
b27 - d26_27 = 0
b28 - d25_28 = 0
b28 - d28_31 - d28_29 = 0
b29 - d28_29 = 0
b29 - d29_30 = 0
b30 - d29_30 = 0
b31 - d28_31 = 0
b31 - d31_34 - d31_32 = 0
b32 - d31_32 = 0
b32 - d32_33 = 0
b33 - d32_33 = 0
b34 - d31_34 = 0
b34 - d34_35 = 0
b35 - d34_35 = 0
b36 - d22_36 = 0
b36 - d36_24 = 0
b37 - d16_37 = 0
b37 - d37_18 = 0
b38 - d9_38 = 0
b38 - d38_11 = 0
b39 - d3_39 = 0
b39 - d39_5 = 0


\ === header constraints ===



\ === context constraints ===
b4 - b4.v0 - b4.v1 = 0
b4.v0 - d2_4 = 0
b4.v1 - d3_4 = 0
b5 - b5.v0 - b5.v1 = 0
b5.v0 - d4_5 = 0
b5.v1 - d39_5 = 0
b10 - b10.v0 - b10.v1 = 0
b10.v0 - d8_10 = 0
b10.v1 - d9_10 = 0
b11 - b11.v0 - b11.v1 = 0
b11.v0 - d10_11 = 0
b11.v1 - d38_11 = 0
b17 - b17.v0 - b17.v1 = 0
b17.v0 - d15_17 = 0
b17.v1 - d16_17 = 0
b18 - b18.v0 - b18.v1 = 0
b18.v0 - d17_18 = 0
b18.v1 - d37_18 = 0
b23 - b23.v0 - b23.v1 = 0
b23.v0 - d21_23 = 0
b23.v1 - d22_23 = 0
b24 - b24.v0 - b24.v1 = 0
b24.v0 - d23_24 = 0
b24.v1 - d36_24 = 0
b26 - b26.v0 - b26.v1 - b26.v2 - b26.v3 - b26.v4 = 0
b26.v0 - d6_26 = 0
b26.v1 - d12_26 = 0
b26.v2 - d19_26 = 0
b26.v3 - d25_26 = 0
b26.v4 - d13_26 = 0


\ === inst cache constraints ===



\ === data cache constraints ===



Generals


b0
b1
b2
b3
b4
b4.v0
b4.v1
b5
b5.v0
b5.v1
b6
b7
b8
b9
b10
b10.v0
b10.v1
b11
b11.v0
b11.v1
b12
b13
b14
b15
b16
b17
b17.v0
b17.v1
b18
b18.v0
b18.v1
b19
b20
b21
b22
b23
b23.v0
b23.v1
b24
b24.v0
b24.v1
b25
b26
b26.v0
b26.v1
b26.v2
b26.v3
b26.v4
b27
b28
b29
b30
b31
b32
b33
b34
b35
b36
b37
b38
b39
d0_1
d1_2
d2_3
d2_4
d3_4
d3_39
d4_5
d5_6
d6_7
d6_26
d7_8
d8_9
d8_10
d9_10
d9_38
d10_11
d11_12
d12_13
d12_26
d13_14
d13_26
d14_15
d15_16
d15_17
d16_17
d16_37
d17_18
d18_19
d19_20
d19_26
d20_21
d21_22
d21_23
d22_23
d22_36
d23_24
d24_25
d25_26
d25_28
d26_27
d28_29
d28_31
d29_30
d31_32
d31_34
d32_33
d34_35
d36_24
d37_18
d38_11
d39_5
dSta_0


End
\ total cons: 137    total vars: 113
